RT is False
Default write of storage_offers_DA.csv just to have a file (but constraint should be inactive)
Reading model...
...model read.
creating competitive generators file...
...competitive generators recorded.
Loading data...
.. day-ahead data read.
Compiling instance...
...instance created.
Creating Offer Mitigation (model will solve as dispatch if TRUE)...
NOTE: storage offers will not be mitigated
...storage offer mitigation file created
Converting model to MPEC...
...converted
NOTE: initial MIP solve with only storage competitive to get feasible solution
Solving...

Welcome to IBM(R) ILOG(R) CPLEX(R) Interactive Optimizer 12.9.0.0
  with Simplex, Mixed Integer & Barrier Optimizers
5725-A06 5725-A29 5724-Y48 5724-Y49 5724-Y54 5724-Y55 5655-Y21
Copyright IBM Corp. 1988, 2019.  All Rights Reserved.

Type 'help' for a list of available commands.
Type 'help' followed by a command name for more
information on commands.

CPLEX> Logfile 'cplex.log' closed.
Logfile 'C:\Users\llavin\Desktop\test919\logs\tmpnrwb1h4o.cplex.log' open.
CPLEX> New value for parallel optimization mode: -1
CPLEX> New value for mixed integer optimality gap tolerance: 0.01
CPLEX> New value for integrality tolerance: 1e-09
CPLEX> New value for feasibility tolerance: 0.01
CPLEX> New value for deterministic time limit in ticks: 75000
CPLEX> Problem 'C:\Users\llavin\Desktop\test919\logs\tmp4o0t6h04.pyomo.lp' read.
Read time = 0.23 sec. (14.73 ticks)
CPLEX> Problem name         : C:\Users\llavin\Desktop\test919\logs\tmp4o0t6h04.pyomo.lp
Objective sense      : Maximize
Variables            :   53805  [Nneg: 1,  Box: 22000,  Free: 4464,
                                 Binary: 27340]
Objective nonzeros   :    8998
Linear constraints   :  123205  [Less: 41346,  Greater: 59096,  Equal: 22763]
  Nonzeros           :  291722
  RHS nonzeros       :   67460

Variables            : Min LB: -5000.000        Max UB: 1000000.       
Objective nonzeros   : Min   : 0.1000000        Max   : 2500.000       
Linear constraints   :
  Nonzeros           : Min   : 0.1000000        Max   : 1000000.       
  RHS nonzeros       : Min   : 0.1000000        Max   : 1000000.       
CPLEX> CPXPARAM_Parallel                                -1
CPXPARAM_Simplex_Tolerances_Feasibility          0.01
CPXPARAM_DetTimeLimit                            75000
CPXPARAM_MIP_Tolerances_MIPGap                   0.01
CPXPARAM_MIP_Tolerances_Integrality              1.0000000000000001e-09
Tried aggregator 3 times.
MIP Presolve eliminated 88878 rows and 19202 columns.
MIP Presolve added 3351 rows and 0 columns.
MIP Presolve modified 24731 coefficients.
Aggregator did 12960 substitutions.
Reduced MIP has 24718 rows, 21087 columns, and 70452 nonzeros.
Reduced MIP has 8326 binaries, 0 generals, 0 SOSs, and 0 indicators.
Presolve time = 0.30 sec. (176.66 ticks)
Probing fixed 409 vars, tightened 2793 bounds.
Probing time = 1.22 sec. (898.20 ticks)
Tried aggregator 2 times.
MIP Presolve eliminated 924 rows and 818 columns.
MIP Presolve modified 2182 coefficients.
Aggregator did 34 substitutions.
Reduced MIP has 23760 rows, 20235 columns, and 67684 nonzeros.
Reduced MIP has 7917 binaries, 0 generals, 0 SOSs, and 0 indicators.
Presolve time = 0.09 sec. (69.58 ticks)
Probing time = 0.05 sec. (16.03 ticks)
Clique table members: 6200.
MIP emphasis: balance optimality and feasibility.
MIP search method: dynamic search.
Parallel mode: opportunistic, using up to 32 threads.
Root relaxation solution time = 0.34 sec. (257.29 ticks)

        Nodes                                         Cuts/
   Node  Left     Objective  IInf  Best Integer    Best Bound    ItCnt     Gap

      0     0     4005.4608  1799                   4005.4608     6214         
      0     0     4005.4608   654                   Cuts: 751     6531         
      0     0     4005.3986   515                   Cuts: 528     6752         
      0     0     4005.3654   435                   Cuts: 291     6868         
      0     0     4005.3654   381                   Cuts: 142     6941         
      0     0     4005.3654   363                    Cuts: 67     6961         
      0     0     4005.3654   357                    Cuts: 28     6971         
      0     0     4005.3654   346                    Cuts: 25     6979         
      0     0     4005.3654   341                    Cuts: 14     6984         
      0     0     4005.3654   337                    Cuts: 12     6988         
      0    20    infeasible                           Cuts: 3     7129         
Elapsed time = 9.73 sec. (5872.10 ticks, tree = 0.02 MB, solutions = 0)
    531    51    infeasible                         3851.0862     8790         
   1189   421     3851.0862   292                   3851.0862    13307         
   2036  1030     3657.4456   285                   3851.0862    15218         
   3069  2401     3851.0862   258                   3851.0862    32490         
   4031  2080     1111.8772   237                   3851.0862    25904         
   4680  3453      -73.6637   175                   3851.0862    47529         
   5096  3728    -1441.9140   210                   3851.0862    48891         
   5651  4113     3851.0862   267                   3851.0862    51958         
   6312  4391     3851.0862   129                   3851.0862    54855         
*  8675  6222      integral     0     3698.7701     3851.0862    60202    4.12%
Elapsed time = 25.86 sec. (8715.39 ticks, tree = 50.83 MB, solutions = 2)
* 10636  7384      integral     0     3819.2216     3851.0862    61514    0.83%

Clique cuts applied:  8
Implied bound cuts applied:  23
Flow cuts applied:  438
Mixed integer rounding cuts applied:  10
Gomory fractional cuts applied:  36

Root node processing (before b&c):
  Real time             =    8.33 sec. (5855.73 ticks)
Parallel b&c, 32 threads:
  Real time             =   20.44 sec. (4057.19 ticks)
  Sync time (average)   =    0.85 sec.
  Wait time (average)   =    0.00 sec.
                          ------------
Total (root+branch&cut) =   28.77 sec. (9912.92 ticks)

Solution pool: 7 solutions saved.

MIP - Integer optimal, tolerance (0.01/1e-06):  Objective =  3.8192216197e+03
Current MIP best bound =  3.8510861666e+03 (gap = 31.8645, 0.83%)
Solution time =   28.80 sec.  Iterations = 66546  Nodes = 12528 (2180)
Deterministic time = 9913.08 ticks  (344.24 ticks/sec)

CPLEX> Incumbent solution written to file 'C:\Users\llavin\Desktop\test919\logs\tmpj5wn_s2h.cplex.sol'.
CPLEX> NOTE: no warmstart specified for MIP iteration, default behavior is true
NOTE: resolving with all competitive generators using storage-only solution to warmstart
Solving...

Welcome to IBM(R) ILOG(R) CPLEX(R) Interactive Optimizer 12.9.0.0
  with Simplex, Mixed Integer & Barrier Optimizers
5725-A06 5725-A29 5724-Y48 5724-Y49 5724-Y54 5724-Y55 5655-Y21
Copyright IBM Corp. 1988, 2019.  All Rights Reserved.

Type 'help' for a list of available commands.
Type 'help' followed by a command name for more
information on commands.

CPLEX> Logfile 'cplex.log' closed.
Logfile 'C:\Users\llavin\Desktop\test919\logs\tmp955xin4_.cplex.log' open.
CPLEX> New value for parallel optimization mode: -1
CPLEX> New value for mixed integer optimality gap tolerance: 0.01
CPLEX> New value for integrality tolerance: 1e-09
CPLEX> New value for feasibility tolerance: 0.01
CPLEX> New value for deterministic time limit in ticks: 75000
CPLEX> Problem 'C:\Users\llavin\Desktop\test919\logs\tmp3sb75d73.pyomo.lp' read.
Read time = 0.23 sec. (14.75 ticks)
CPLEX> MIP start file 'C:\Users\llavin\Desktop\test919\logs\tmp7gld0pzi.cplex.mst' read.
CPLEX> Problem name         : C:\Users\llavin\Desktop\test919\logs\tmp3sb75d73.pyomo.lp
Objective sense      : Maximize
Variables            :   54525  [Nneg: 1,  Box: 22720,  Free: 4464,
                                 Binary: 27340]
Objective nonzeros   :    9706
Linear constraints   :  123205  [Less: 41346,  Greater: 59096,  Equal: 22763]
  Nonzeros           :  291722
  RHS nonzeros       :   67460

Variables            : Min LB: -5000.000        Max UB: 1000000.       
Objective nonzeros   : Min   : 0.1000000        Max   : 2500.000       
Linear constraints   :
  Nonzeros           : Min   : 0.1000000        Max   : 1000000.       
  RHS nonzeros       : Min   : 0.1000000        Max   : 1000000.       
CPLEX> CPXPARAM_Parallel                                -1
CPXPARAM_Simplex_Tolerances_Feasibility          0.01
CPXPARAM_DetTimeLimit                            75000
CPXPARAM_MIP_Tolerances_MIPGap                   0.01
CPXPARAM_MIP_Tolerances_Integrality              1.0000000000000001e-09
Warning:  No solution found from 1 MIP starts.
Retaining values of one MIP start for possible repair.
Tried aggregator 3 times.
MIP Presolve eliminated 88878 rows and 19922 columns.
MIP Presolve added 3351 rows and 0 columns.
MIP Presolve modified 24731 coefficients.
Aggregator did 12960 substitutions.
Reduced MIP has 24718 rows, 21087 columns, and 70452 nonzeros.
Reduced MIP has 8326 binaries, 0 generals, 0 SOSs, and 0 indicators.
Presolve time = 0.30 sec. (177.03 ticks)
Probing fixed 409 vars, tightened 2793 bounds.
Probing time = 1.23 sec. (898.20 ticks)
Tried aggregator 2 times.
MIP Presolve eliminated 924 rows and 818 columns.
MIP Presolve modified 2182 coefficients.
Aggregator did 34 substitutions.
Reduced MIP has 23760 rows, 20235 columns, and 67684 nonzeros.
Reduced MIP has 7917 binaries, 0 generals, 0 SOSs, and 0 indicators.
Presolve time = 0.11 sec. (69.58 ticks)
Probing time = 0.05 sec. (16.03 ticks)
Clique table members: 6200.
MIP emphasis: balance optimality and feasibility.
MIP search method: dynamic search.
Parallel mode: opportunistic, using up to 32 threads.
Root relaxation solution time = 0.31 sec. (263.79 ticks)

        Nodes                                         Cuts/
   Node  Left     Objective  IInf  Best Integer    Best Bound    ItCnt     Gap

      0     0     4215.6793  1763                   4215.6793     6318         
      0     0     4215.6793   614                   Cuts: 786     6632         
      0     0     4215.6793   500                   Cuts: 516     6857         
      0     0     4215.6251   425                   Cuts: 324     6993         
      0     0     4215.6251   380                   Cuts: 139     7059         
      0     0     4215.6251   354                   Cuts: 127     7109         
      0     0     4215.6251   342                    Cuts: 51     7127         
      0     0     4215.6251   335                    Cuts: 45     7158         
      0     0     4215.6251   320                    Cuts: 66     7198         
      0     0     4215.6251   315                    Cuts: 42     7207         
      0     0     4215.6251   310                    Cuts: 41     7213         
Repair heuristic found nothing.
      0    22    infeasible                           Cuts: 3     7693         
Elapsed time = 11.09 sec. (6321.26 ticks, tree = 0.02 MB, solutions = 0)
    424    53     3983.1116   301                   4175.5310     7875         
   1290   368     4007.6972   285                   4175.5310     9214         
   2581   897     3843.7726   261                   4175.5310    11707         
   3640  2017     3843.0990   186                   4175.5310    15596         
   4372  3361     3776.6723   174                   4175.5310    20455         
   4896  3379     3942.3154   164                   4175.5310    20511         
   5569  4297      148.6548   124                   4175.5310    23544         
   6410  4874    -1340.0926   119                   4175.5310    24606         
   7443  6012     3726.3224   126                   4175.5310    26650         
*  8144+ 1381                         3978.1927     4175.5310             4.96%
Elapsed time = 24.48 sec. (8606.50 ticks, tree = 46.66 MB, solutions = 10)
  11247   982     4056.8960   240     4005.2287     4056.8960    35575    1.29%

Clique cuts applied:  7
Cover cuts applied:  3
Implied bound cuts applied:  28
Flow cuts applied:  452
Mixed integer rounding cuts applied:  29
Gomory fractional cuts applied:  30

Root node processing (before b&c):
  Real time             =    9.58 sec. (6314.40 ticks)
Parallel b&c, 32 threads:
  Real time             =   20.83 sec. (4547.67 ticks)
  Sync time (average)   =    1.01 sec.
  Wait time (average)   =    0.00 sec.
                          ------------
Total (root+branch&cut) =   30.41 sec. (10862.07 ticks)

Solution pool: 16 solutions saved.

MIP - Integer optimal, tolerance (0.01/1e-06):  Objective =  4.0052287414e+03
Current MIP best bound =  4.0331416452e+03 (gap = 27.9129, 0.70%)
Solution time =   30.42 sec.  Iterations = 41814  Nodes = 11307 (2204)
Deterministic time = 10862.23 ticks  (357.05 ticks/sec)

CPLEX> Incumbent solution written to file 'C:\Users\llavin\Desktop\test919\logs\tmp6ogz87b_.cplex.sol'.
CPLEX> Exporting results... 
